NAME RRP
OBJSENSE MAX
ROWS
 N  OBJ
 E  R0      
 E  R1      
 E  (4.5)[0,1,0]
 E  (4.6)[0,2,0]
 E  (4.7)[0,1,0]
 E  (4.8)[2,0,0]
 L  R6      
 L  R7      
 E  R8      
 E  R9      
 E  R10     
 L  R11     
 L  R12     
 G  R13     
 L  R14     
 G  R15     
 L  R16     
 G  R17     
 G  R18     
 L  R19     
 G  R20     
 L  R21     
 L  R22     
 L  R23     
 L  R24     
 G  R25     
 L  R26     
COLUMNS
    MARKER    'MARKER'                 'INTORG'
    x_kimjn[0,1,0,1,0]  OBJ       0
    x_kimjn[0,1,0,2,0]  (4.5)[0,1,0]  -1
    x_kimjn[0,1,0,2,0]  (4.6)[0,2,0]  -1
    x_kimjn[0,1,0,2,0]  R10       2
    x_kimjn[0,1,0,2,0]  R12       375
    x_kimjn[0,1,0,2,0]  R13       -375
    x_kimjn[0,2,0,1,0]  OBJ       0
    x_kimjn[0,2,0,2,0]  OBJ       0
    xs_kim[0,1,0]  R0        1
    xs_kim[0,1,0]  (4.5)[0,1,0]  1
    xs_kim[0,1,0]  (4.7)[0,1,0]  1
    xs_kim[0,1,0]  R8        1
    xs_kim[0,1,0]  R14       375
    xs_kim[0,1,0]  R15       -375
    xe_kjn[0,2,0]  R1        1
    xe_kjn[0,2,0]  (4.6)[0,2,0]  1
    xe_kjn[0,2,0]  (4.8)[2,0,0]  1
    xe_kjn[0,2,0]  R16       375
    xe_kjn[0,2,0]  R17       -375
    xod_k[0]  R0        1
    xod_k[0]  R1        1
    xod_k[0]  R9        1
    yp_kim[0,1,0]  (4.7)[0,1,0]  -1
    yp_kim[0,1,0]  R6        1
    yp_kim[0,1,0]  R24       0.1
    yd_kim[0,2,0]  (4.8)[2,0,0]  -1
    yd_kim[0,2,0]  R7        1
    yd_kim[0,2,0]  R25       -0.1
    z_ki[0,1]  OBJ       1
    z_ki[0,1]  R8        -1
    z_ki[0,1]  R26       1
    MARKER    'MARKER'                 'INTEND'
    t_ki[0,0,0]  R14       1
    t_ki[0,0,0]  R15       1
    t_ki[0,0,0]  R23       -1
    t_ki[0,1,0]  R11       1
    t_ki[0,1,0]  R12       1
    t_ki[0,1,0]  R13       1
    t_ki[0,1,0]  R14       -1
    t_ki[0,1,0]  R15       -1
    t_ki[0,1,0]  R22       -1
    t_ki[0,2,0]  R11       -1
    t_ki[0,2,0]  R12       -1
    t_ki[0,2,0]  R13       -1
    t_ki[0,2,0]  R16       1
    t_ki[0,2,0]  R17       1
    t_ki[0,2,0]  R18       1
    t_ki[0,2,0]  R19       1
    t_ki[0,2,0]  R22       1
    t_ki[0,3,0]  R16       -1
    t_ki[0,3,0]  R17       -1
    t_ki[0,3,0]  R20       1
    t_ki[0,3,0]  R21       1
    t_ki[0,3,0]  R23       1
RHS
    RHS1      R0        1
    RHS1      R1        1
    RHS1      R6        1
    RHS1      R7        1
    RHS1      R11       -18
    RHS1      R12       357
    RHS1      R13       -393
    RHS1      R14       368
    RHS1      R15       -382
    RHS1      R16       374.9
    RHS1      R17       -375.1
    RHS1      R18       119.9
    RHS1      R19       149.9
    RHS1      R20       120
    RHS1      R21       150
    RHS1      R22       1.2666666666666667e+02
    RHS1      R23       150
    RHS1      R26       4
BOUNDS
 BV BND1      x_kimjn[0,1,0,1,0]
 BV BND1      x_kimjn[0,1,0,2,0]
 BV BND1      x_kimjn[0,2,0,1,0]
 BV BND1      x_kimjn[0,2,0,2,0]
 BV BND1      xs_kim[0,1,0]
 BV BND1      xe_kjn[0,2,0]
 BV BND1      xod_k[0]
 BV BND1      yp_kim[0,1,0]
 BV BND1      yd_kim[0,2,0]
 BV BND1      z_ki[0,1]
ENDATA
